
Gurobi 9.1.2 (linux64) logging started Fri Jun 25 10:28:21 2021


Gurobi 9.1.2 (linux64) logging started Fri Jun 25 10:28:26 2021

Gurobi Optimizer version 9.1.2 build v9.1.2rc0 (linux64)
Thread count: 40 physical cores, 40 logical processors, using up to 32 threads
Optimize a model with 64962 rows, 25295 columns and 186368 nonzeros
Model fingerprint: 0x521960b9
Coefficient statistics:
  Matrix range     [3e-04, 1e+00]
  Objective range  [1e+01, 4e+05]
  Bounds range     [1e+03, 8e+06]
  RHS range        [6e+00, 1e+09]
Presolve removed 6352 rows and 19889 columns
Presolve time: 0.10s
Presolved: 18943 rows, 45073 columns, 152269 nonzeros
Ordering time: 3.35s

Barrier statistics:
 Dense cols : 2
 Free vars  : 1792
 AA' NZ     : 2.059e+05
 Factor NZ  : 1.524e+06 (roughly 40 MBytes of memory)
 Factor Ops : 2.290e+08 (less than 1 second per iteration)
 Threads    : 32

                  Objective                Residual
Iter       Primal          Dual         Primal    Dual     Compl     Time
   0  -6.18056686e+15  6.64990595e+13  3.32e+07 1.84e+07  7.89e+12     5s
   1  -2.45642592e+15  1.07481910e+15  1.12e+07 4.04e+07  2.79e+12     6s
   2  -7.55026393e+14  1.54550269e+15  2.78e+06 1.32e+07  7.85e+11     7s
   3  -2.51120096e+14  1.71663495e+15  5.90e+05 3.76e+06  2.09e+11     8s
   4  -1.12673021e+14  1.07975123e+15  8.28e+04 8.14e+05  4.67e+10     9s
   5  -5.54055382e+13  3.17353518e+14  3.92e+03 1.03e+05  8.23e+09    10s
   6  -5.28119120e+12  6.88830784e+13  3.51e+00 2.10e+04  1.53e+09    11s
   7  -1.47097602e+12  2.43827901e+13  6.86e-01 7.02e+03  5.19e+08    12s
   8  -1.40256790e+12  7.29956435e+12  6.51e-01 1.88e+03  1.69e+08    13s
   9  -4.73774163e+11  2.79541656e+12  9.00e-02 6.55e+02  5.99e+07    14s
  10  -1.82329734e+11  7.63967006e+11  2.60e-02 1.59e+02  1.68e+07    15s
  11  -3.83432110e+10  2.84218915e+11  6.44e-03 5.23e+01  5.61e+06    16s
  12  -9.91422313e+09  1.38329877e+11  3.90e-03 2.02e+01  2.56e+06    17s
  13   1.42096990e+10  1.01081866e+11  2.24e-03 1.16e+01  1.50e+06    18s
  14   2.56007254e+10  8.47065769e+10  1.43e-03 8.09e+00  1.02e+06    19s
  15   3.22497550e+10  7.08652092e+10  9.34e-04 5.15e+00  6.65e+05    19s
  16   3.48541775e+10  6.10708176e+10  7.11e-04 3.21e+00  4.51e+05    21s
  17   3.80805172e+10  5.43205977e+10  4.26e-04 1.97e+00  2.79e+05    21s
  18   3.98622211e+10  5.01976339e+10  2.66e-04 1.23e+00  1.78e+05    23s
  19   4.06094786e+10  4.77222816e+10  1.99e-04 7.97e-01  1.22e+05    24s
  20   4.11213676e+10  4.67497122e+10  1.53e-04 6.30e-01  9.66e+04    25s
  21   4.14176705e+10  4.59520358e+10  1.25e-04 5.01e-01  7.78e+04    26s
  22   4.16390691e+10  4.51780499e+10  1.05e-04 3.74e-01  6.07e+04    27s
  23   4.17444838e+10  4.47143969e+10  9.58e-05 2.98e-01  5.09e+04    28s
  24   4.20720033e+10  4.43724604e+10  6.83e-05 2.40e-01  3.95e+04    28s
  25   4.22787556e+10  4.41836659e+10  5.08e-05 2.07e-01  3.27e+04    29s
  26   4.23566884e+10  4.38850074e+10  4.43e-05 1.58e-01  2.62e+04    31s
  27   4.24709333e+10  4.37006177e+10  3.47e-05 1.27e-01  2.11e+04    32s
  28   4.24987364e+10  4.34768252e+10  3.36e-05 9.34e-02  1.68e+04    33s
  29   4.25486709e+10  4.33578214e+10  2.79e-05 7.42e-02  1.39e+04    34s
  30   4.26092557e+10  4.32514417e+10  2.55e-05 5.70e-02  1.10e+04    35s
  31   4.26578184e+10  4.31840294e+10  2.23e-05 4.69e-02  9.02e+03    36s
  32   4.26893981e+10  4.31420236e+10  1.87e-05 4.05e-02  7.76e+03    37s
  33   4.27200641e+10  4.31080952e+10  1.44e-05 3.57e-02  6.65e+03    38s
  34   4.27364355e+10  4.29926655e+10  1.33e-05 2.34e-02  4.38e+03    39s
  35   4.27635893e+10  4.29698394e+10  1.17e-05 2.16e-02  3.53e+03    40s
  36   4.27955771e+10  4.29183753e+10  1.01e-05 1.60e-02  2.10e+03    41s
  37   4.28136025e+10  4.28909197e+10  2.47e-05 1.19e-02  1.32e+03    43s
  38   4.28263926e+10  4.28850915e+10  5.75e-05 1.07e-02  1.00e+03    43s
  39   4.28354416e+10  4.28698865e+10  8.87e-05 6.90e-03  5.89e+02    44s
  40   4.28407977e+10  4.28649704e+10  5.46e-05 5.93e-03  4.13e+02    45s
  41   4.28424255e+10  4.28626346e+10  3.03e-05 5.46e-03  3.46e+02    46s
  42   4.28466053e+10  4.28586337e+10  2.74e-04 4.51e-03  2.06e+02    47s
  43   4.28480649e+10  4.28568307e+10  3.90e-04 3.78e-03  1.50e+02    48s
  44   4.28490792e+10  4.28564738e+10  4.11e-04 3.62e-03  1.27e+02    49s
  45   4.28499878e+10  4.28543069e+10  3.78e-04 2.53e-03  7.40e+01    50s
  46   4.28503898e+10  4.28525744e+10  2.86e-04 1.42e-03  3.73e+01    51s
  47   4.28508783e+10  4.28522222e+10  4.61e-04 1.07e-03  2.30e+01    52s
  48   4.28511787e+10  4.28517087e+10  2.38e-04 4.84e-04  9.04e+00    53s
  49   4.28514229e+10  4.28516349e+10  2.09e-04 3.67e-04  3.63e+00    54s
  50   4.28514626e+10  4.28515836e+10  1.11e-04 2.30e-04  2.07e+00    55s
  51   4.28514965e+10  4.28515394e+10  2.70e-05 1.47e-04  7.36e-01    57s
  52   4.28515057e+10  4.28515171e+10  1.08e-05 6.98e-05  1.95e-01    58s
  53   4.28515074e+10  4.28515117e+10  2.87e-06 3.47e-05  7.46e-02    60s
  54   4.28515078e+10  4.28515088e+10  4.73e-07 8.38e-05  1.84e-02    64s
  55   4.28515078e+10  4.28515084e+10  3.39e-07 9.50e-05  1.08e-02    66s
  56   4.28515078e+10  4.28515083e+10  3.06e-06 1.03e-04  8.58e-03    68s
  57   4.28515078e+10  4.28515083e+10  7.15e-06 1.03e-04  8.58e-03    69s
  58   4.28515078e+10  4.28515083e+10  7.15e-06 1.03e-04  8.58e-03    71s
  59   4.28515078e+10  4.28515083e+10  7.15e-06 1.03e-04  8.54e-03    73s

Barrier solved model in 59 iterations and 73.38 seconds
Optimal objective 4.28515078e+10


User-callback calls 2154, time in user-callback 0.01 sec

Gurobi 9.1.2 (linux64) logging started Fri Jun 25 10:34:56 2021


Gurobi 9.1.2 (linux64) logging started Fri Jun 25 10:35:01 2021

Gurobi Optimizer version 9.1.2 build v9.1.2rc0 (linux64)
Thread count: 40 physical cores, 40 logical processors, using up to 32 threads
Optimize a model with 64962 rows, 25295 columns and 186368 nonzeros
Model fingerprint: 0x521960b9
Coefficient statistics:
  Matrix range     [3e-04, 1e+00]
  Objective range  [1e+01, 4e+05]
  Bounds range     [1e+03, 8e+06]
  RHS range        [6e+00, 1e+09]
Presolve removed 6352 rows and 19889 columns
Presolve time: 0.09s
Presolved: 18943 rows, 45073 columns, 152269 nonzeros
Ordering time: 3.32s

Barrier statistics:
 Dense cols : 2
 Free vars  : 1792
 AA' NZ     : 2.059e+05
 Factor NZ  : 1.524e+06 (roughly 40 MBytes of memory)
 Factor Ops : 2.290e+08 (less than 1 second per iteration)
 Threads    : 32

                  Objective                Residual
Iter       Primal          Dual         Primal    Dual     Compl     Time
   0  -6.18056686e+15  6.64990595e+13  3.32e+07 1.84e+07  7.89e+12     5s
   1  -2.45642592e+15  1.07481910e+15  1.12e+07 4.04e+07  2.79e+12     6s
   2  -7.55026393e+14  1.54550269e+15  2.78e+06 1.32e+07  7.85e+11     7s
   3  -2.51120096e+14  1.71663495e+15  5.90e+05 3.76e+06  2.09e+11     8s
   4  -1.12673021e+14  1.07975123e+15  8.28e+04 8.14e+05  4.67e+10     9s
   5  -5.54055382e+13  3.17353518e+14  3.92e+03 1.03e+05  8.23e+09    10s
   6  -5.28119120e+12  6.88830784e+13  3.51e+00 2.10e+04  1.53e+09    11s
   7  -1.47097602e+12  2.43827901e+13  6.86e-01 7.02e+03  5.19e+08    11s
   8  -1.40256790e+12  7.29956435e+12  6.51e-01 1.88e+03  1.69e+08    12s
   9  -4.73774163e+11  2.79541656e+12  9.00e-02 6.55e+02  5.99e+07    13s
  10  -1.82329734e+11  7.63967006e+11  2.60e-02 1.59e+02  1.68e+07    14s
  11  -3.83432110e+10  2.84218915e+11  6.44e-03 5.23e+01  5.61e+06    15s
  12  -9.91422313e+09  1.38329877e+11  3.90e-03 2.02e+01  2.56e+06    16s
  13   1.42096990e+10  1.01081866e+11  2.24e-03 1.16e+01  1.50e+06    17s
  14   2.56007254e+10  8.47065769e+10  1.43e-03 8.09e+00  1.02e+06    18s
  15   3.22497550e+10  7.08652092e+10  9.34e-04 5.15e+00  6.65e+05    18s
  16   3.48541775e+10  6.10708176e+10  7.11e-04 3.21e+00  4.51e+05    20s
  17   3.80805172e+10  5.43205977e+10  4.26e-04 1.97e+00  2.79e+05    20s
  18   3.98622211e+10  5.01976339e+10  2.66e-04 1.23e+00  1.78e+05    21s
  19   4.06094786e+10  4.77222816e+10  1.99e-04 7.97e-01  1.22e+05    23s
  20   4.11213676e+10  4.67497122e+10  1.53e-04 6.30e-01  9.66e+04    24s
  21   4.14176705e+10  4.59520358e+10  1.25e-04 5.01e-01  7.78e+04    25s
  22   4.16390691e+10  4.51780499e+10  1.05e-04 3.74e-01  6.07e+04    26s
  23   4.17444838e+10  4.47143969e+10  9.58e-05 2.98e-01  5.09e+04    27s
  24   4.20720033e+10  4.43724604e+10  6.83e-05 2.40e-01  3.95e+04    28s
  25   4.22787556e+10  4.41836659e+10  5.08e-05 2.07e-01  3.27e+04    29s
  26   4.23566884e+10  4.38850074e+10  4.43e-05 1.58e-01  2.62e+04    30s
  27   4.24709333e+10  4.37006177e+10  3.47e-05 1.27e-01  2.11e+04    31s
  28   4.24987364e+10  4.34768252e+10  3.36e-05 9.34e-02  1.68e+04    33s
  29   4.25486709e+10  4.33578214e+10  2.79e-05 7.42e-02  1.39e+04    33s
  30   4.26092557e+10  4.32514417e+10  2.55e-05 5.70e-02  1.10e+04    35s
  31   4.26578184e+10  4.31840294e+10  2.23e-05 4.69e-02  9.02e+03    36s
  32   4.26893981e+10  4.31420236e+10  1.87e-05 4.05e-02  7.76e+03    37s
  33   4.27200641e+10  4.31080952e+10  1.44e-05 3.57e-02  6.65e+03    38s
  34   4.27364355e+10  4.29926655e+10  1.33e-05 2.34e-02  4.38e+03    39s
  35   4.27635893e+10  4.29698394e+10  1.17e-05 2.16e-02  3.53e+03    40s
  36   4.27955771e+10  4.29183753e+10  1.01e-05 1.60e-02  2.10e+03    41s
  37   4.28136025e+10  4.28909197e+10  2.47e-05 1.19e-02  1.32e+03    42s
  38   4.28263926e+10  4.28850915e+10  5.75e-05 1.07e-02  1.00e+03    43s
  39   4.28354416e+10  4.28698865e+10  8.87e-05 6.90e-03  5.89e+02    43s
  40   4.28407977e+10  4.28649704e+10  5.46e-05 5.93e-03  4.13e+02    44s
  41   4.28424255e+10  4.28626346e+10  3.03e-05 5.46e-03  3.46e+02    45s
  42   4.28466053e+10  4.28586337e+10  2.74e-04 4.51e-03  2.06e+02    46s
  43   4.28480649e+10  4.28568307e+10  3.90e-04 3.78e-03  1.50e+02    47s
  44   4.28490792e+10  4.28564738e+10  4.11e-04 3.62e-03  1.27e+02    48s
  45   4.28499878e+10  4.28543069e+10  3.78e-04 2.53e-03  7.40e+01    49s
  46   4.28503898e+10  4.28525744e+10  2.86e-04 1.42e-03  3.73e+01    50s
  47   4.28508783e+10  4.28522222e+10  4.61e-04 1.07e-03  2.30e+01    51s
  48   4.28511787e+10  4.28517087e+10  2.38e-04 4.84e-04  9.04e+00    53s
  49   4.28514229e+10  4.28516349e+10  2.09e-04 3.67e-04  3.63e+00    53s
  50   4.28514626e+10  4.28515836e+10  1.11e-04 2.30e-04  2.07e+00    55s
  51   4.28514965e+10  4.28515394e+10  2.70e-05 1.47e-04  7.36e-01    56s
  52   4.28515057e+10  4.28515171e+10  1.08e-05 6.98e-05  1.95e-01    57s
  53   4.28515074e+10  4.28515117e+10  2.87e-06 3.47e-05  7.46e-02    59s
  54   4.28515078e+10  4.28515088e+10  4.73e-07 8.38e-05  1.84e-02    63s
  55   4.28515078e+10  4.28515084e+10  3.39e-07 9.50e-05  1.08e-02    66s
  56   4.28515078e+10  4.28515083e+10  3.06e-06 1.03e-04  8.58e-03    67s
  57   4.28515078e+10  4.28515083e+10  7.15e-06 1.03e-04  8.58e-03    69s
  58   4.28515078e+10  4.28515083e+10  7.15e-06 1.03e-04  8.58e-03    70s
  59   4.28515078e+10  4.28515083e+10  7.15e-06 1.03e-04  8.54e-03    73s

Barrier solved model in 59 iterations and 72.53 seconds
Optimal objective 4.28515078e+10


User-callback calls 1661, time in user-callback 0.01 sec

Gurobi 9.1.2 (linux64) logging started Fri Jun 25 10:48:22 2021


Gurobi 9.1.2 (linux64) logging started Fri Jun 25 10:48:28 2021

Gurobi Optimizer version 9.1.2 build v9.1.2rc0 (linux64)
Thread count: 40 physical cores, 40 logical processors, using up to 32 threads
Optimize a model with 64962 rows, 25295 columns and 186368 nonzeros
Model fingerprint: 0x521960b9
Coefficient statistics:
  Matrix range     [3e-04, 1e+00]
  Objective range  [1e+01, 4e+05]
  Bounds range     [1e+03, 8e+06]
  RHS range        [6e+00, 1e+09]
Presolve removed 6352 rows and 19889 columns
Presolve time: 0.09s
Presolved: 18943 rows, 45073 columns, 152269 nonzeros
Ordering time: 3.32s

Barrier statistics:
 Dense cols : 2
 Free vars  : 1792
 AA' NZ     : 2.059e+05
 Factor NZ  : 1.524e+06 (roughly 40 MBytes of memory)
 Factor Ops : 2.290e+08 (less than 1 second per iteration)
 Threads    : 32

                  Objective                Residual
Iter       Primal          Dual         Primal    Dual     Compl     Time
   0  -6.18056686e+15  6.64990595e+13  3.32e+07 1.84e+07  7.89e+12     5s
   1  -2.45642592e+15  1.07481910e+15  1.12e+07 4.04e+07  2.79e+12     6s
   2  -7.55026393e+14  1.54550269e+15  2.78e+06 1.32e+07  7.85e+11     7s
   3  -2.51120096e+14  1.71663495e+15  5.90e+05 3.76e+06  2.09e+11     9s
   4  -1.12673021e+14  1.07975123e+15  8.28e+04 8.14e+05  4.67e+10    10s
   5  -5.54055382e+13  3.17353518e+14  3.92e+03 1.03e+05  8.23e+09    10s
   6  -5.28119120e+12  6.88830784e+13  3.51e+00 2.10e+04  1.53e+09    11s
   7  -1.47097602e+12  2.43827901e+13  6.86e-01 7.02e+03  5.19e+08    12s
   8  -1.40256790e+12  7.29956435e+12  6.51e-01 1.88e+03  1.69e+08    13s
   9  -4.73774163e+11  2.79541656e+12  9.00e-02 6.55e+02  5.99e+07    14s
  10  -1.82329734e+11  7.63967006e+11  2.60e-02 1.59e+02  1.68e+07    16s
  11  -3.83432110e+10  2.84218915e+11  6.44e-03 5.23e+01  5.61e+06    17s
  12  -9.91422313e+09  1.38329877e+11  3.90e-03 2.02e+01  2.56e+06    17s
  13   1.42096990e+10  1.01081866e+11  2.24e-03 1.16e+01  1.50e+06    18s
  14   2.56007254e+10  8.47065769e+10  1.43e-03 8.09e+00  1.02e+06    19s
  15   3.22497550e+10  7.08652092e+10  9.34e-04 5.15e+00  6.65e+05    20s
  16   3.48541775e+10  6.10708176e+10  7.11e-04 3.21e+00  4.51e+05    21s
  17   3.80805172e+10  5.43205977e+10  4.26e-04 1.97e+00  2.79e+05    22s
  18   3.98622211e+10  5.01976339e+10  2.66e-04 1.23e+00  1.78e+05    23s
  19   4.06094786e+10  4.77222816e+10  1.99e-04 7.97e-01  1.22e+05    24s
  20   4.11213676e+10  4.67497122e+10  1.53e-04 6.30e-01  9.66e+04    25s
  21   4.14176705e+10  4.59520358e+10  1.25e-04 5.01e-01  7.78e+04    26s
  22   4.16390691e+10  4.51780499e+10  1.05e-04 3.74e-01  6.07e+04    27s
  23   4.17444838e+10  4.47143969e+10  9.58e-05 2.98e-01  5.09e+04    28s
  24   4.20720033e+10  4.43724604e+10  6.83e-05 2.40e-01  3.95e+04    29s
  25   4.22787556e+10  4.41836659e+10  5.08e-05 2.07e-01  3.27e+04    30s
  26   4.23566884e+10  4.38850074e+10  4.43e-05 1.58e-01  2.62e+04    32s
  27   4.24709333e+10  4.37006177e+10  3.47e-05 1.27e-01  2.11e+04    33s
  28   4.24987364e+10  4.34768252e+10  3.36e-05 9.34e-02  1.68e+04    34s
  29   4.25486709e+10  4.33578214e+10  2.79e-05 7.42e-02  1.39e+04    35s
  30   4.26092557e+10  4.32514417e+10  2.55e-05 5.70e-02  1.10e+04    36s
  31   4.26578184e+10  4.31840294e+10  2.23e-05 4.69e-02  9.02e+03    37s
  32   4.26893981e+10  4.31420236e+10  1.87e-05 4.05e-02  7.76e+03    38s
  33   4.27200641e+10  4.31080952e+10  1.44e-05 3.57e-02  6.65e+03    39s
  34   4.27364355e+10  4.29926655e+10  1.33e-05 2.34e-02  4.38e+03    40s
  35   4.27635893e+10  4.29698394e+10  1.17e-05 2.16e-02  3.53e+03    41s
  36   4.27955771e+10  4.29183753e+10  1.01e-05 1.60e-02  2.10e+03    42s
  37   4.28136025e+10  4.28909197e+10  2.47e-05 1.19e-02  1.32e+03    43s
  38   4.28263926e+10  4.28850915e+10  5.75e-05 1.07e-02  1.00e+03    44s
  39   4.28354416e+10  4.28698865e+10  8.87e-05 6.90e-03  5.89e+02    45s
  40   4.28407977e+10  4.28649704e+10  5.46e-05 5.93e-03  4.13e+02    46s
  41   4.28424255e+10  4.28626346e+10  3.03e-05 5.46e-03  3.46e+02    47s
  42   4.28466053e+10  4.28586337e+10  2.74e-04 4.51e-03  2.06e+02    48s
  43   4.28480649e+10  4.28568307e+10  3.90e-04 3.78e-03  1.50e+02    48s
  44   4.28490792e+10  4.28564738e+10  4.11e-04 3.62e-03  1.27e+02    49s
  45   4.28499878e+10  4.28543069e+10  3.78e-04 2.53e-03  7.40e+01    50s
  46   4.28503898e+10  4.28525744e+10  2.86e-04 1.42e-03  3.73e+01    51s
  47   4.28508783e+10  4.28522222e+10  4.61e-04 1.07e-03  2.30e+01    52s
  48   4.28511787e+10  4.28517087e+10  2.38e-04 4.84e-04  9.04e+00    54s
  49   4.28514229e+10  4.28516349e+10  2.09e-04 3.67e-04  3.63e+00    55s
  50   4.28514626e+10  4.28515836e+10  1.11e-04 2.30e-04  2.07e+00    56s
  51   4.28514965e+10  4.28515394e+10  2.70e-05 1.47e-04  7.36e-01    57s
  52   4.28515057e+10  4.28515171e+10  1.08e-05 6.98e-05  1.95e-01    58s
  53   4.28515074e+10  4.28515117e+10  2.87e-06 3.47e-05  7.46e-02    60s
  54   4.28515078e+10  4.28515088e+10  4.73e-07 8.38e-05  1.84e-02    64s
  55   4.28515078e+10  4.28515084e+10  3.39e-07 9.50e-05  1.08e-02    67s
  56   4.28515078e+10  4.28515083e+10  3.06e-06 1.03e-04  8.58e-03    69s
  57   4.28515078e+10  4.28515083e+10  7.15e-06 1.03e-04  8.58e-03    70s
  58   4.28515078e+10  4.28515083e+10  7.15e-06 1.03e-04  8.58e-03    72s
  59   4.28515078e+10  4.28515083e+10  7.15e-06 1.03e-04  8.54e-03    74s

Barrier solved model in 59 iterations and 73.74 seconds
Optimal objective 4.28515078e+10


User-callback calls 2044, time in user-callback 0.01 sec
